p cnf 50 80
-30 11 -38 0
40 14 46 0
36 25 -1 0
22 -42 33 0
-39 -23 -6 0
30 44 -16 0
-25 18 -37 0
-45 -42 47 0
20 -24 50 0
44 -11 -5 0
-47 30 44 0
-35 -31 -27 0
26 -22 13 0
-46 -6 -28 0
-46 -39 -16 0
49 -29 -5 0
-27 -13 -30 0
4 26 -25 0
40 19 -4 0
-3 19 -4 0
-21 -14 -20 0
36 -50 -47 0
-22 5 -21 0
-31 29 -24 0
19 41 36 0
49 -35 42 0
-19 -23 36 0
39 -20 47 0
-12 -35 49 0
-36 -23 -22 0
43 4 -47 0
47 -30 -42 0
-36 45 27 0
-28 29 -18 0
-19 -4 27 0
37 26 -36 0
31 -38 35 0
6 -27 -37 0
-25 -24 -33 0
-45 23 -7 0
25 42 19 0
-2 -30 18 0
-44 -41 38 0
7 34 -22 0
5 45 -41 0
26 22 -46 0
-12 26 14 0
-21 18 -3 0
-24 33 -32 0
-33 27 26 0
x 1 -7 8 10 14 -17 -18 -19 -21 23 24 25 27 28 -31 32 -34 -36 38 -40 41 43 44 -45 -46 47 50 0
x -1 4 -5 -9 -10 13 -17 20 -25 26 -27 -28 31 -32 34 -38 -39 -40 -41 -42 43 45 50 0
x 3 -5 -7 8 -10 12 -13 15 16 -20 22 24 -25 -28 -30 31 -32 -36 -38 0
x -5 -6 7 8 -10 -13 -16 18 19 -22 -23 -26 -30 -31 35 38 -40 -41 -42 -43 -44 -45 46 -47 -48 -49 -50 0
x 1 -2 5 -7 8 10 -11 -12 -14 16 -17 -19 20 -21 -22 23 -24 -25 26 -27 -28 -34 -36 -37 -50 0
x 1 -3 -4 -5 -6 12 -13 -14 15 21 24 -27 -28 -29 -30 31 -32 34 -36 39 -40 -42 -43 44 46 47 49 0
x -1 3 -5 7 -11 -13 -17 18 -19 -21 25 -27 -29 32 34 -38 39 40 -41 -45 46 -47 -48 -50 0
x 1 -5 9 -10 12 -14 -15 -16 18 -20 22 23 -24 30 -31 -35 37 -39 -40 -41 -43 -44 46 47 -48 0
x 6 -7 12 -13 14 -17 -20 22 -24 26 27 28 -32 34 -35 39 -41 42 44 0
x -1 -2 -3 -4 6 8 10 -12 -15 17 18 -20 -21 22 -24 26 28 29 31 -32 -35 -36 -38 -40 43 -44 -45 47 48 -49 -50 0
x 2 3 -4 5 6 7 9 10 11 -18 -20 21 22 23 -24 -25 27 33 34 36 38 -43 44 45 -46 -47 48 50 0
x 6 7 9 -10 -11 12 -15 18 21 -22 23 -24 -25 -28 30 31 -32 -34 35 36 -39 -40 -41 42 43 46 47 -50 0
x 2 -3 5 -6 7 -8 -9 10 -16 19 21 -27 -30 -31 33 -35 37 -41 42 -46 -48 0
x -1 -7 8 -10 -14 -18 -20 -24 -28 -31 33 -34 36 39 40 -41 -42 43 49 -50 0
x 1 2 3 -9 11 12 -13 16 17 -19 20 23 24 28 29 -30 33 34 -36 -37 -40 -43 44 -49 0
x -1 -3 11 16 -17 19 22 23 25 -29 -31 33 35 -36 37 38 -40 -41 -44 -45 47 0
x 1 3 4 6 8 -12 -13 14 18 -19 20 21 -24 26 -28 29 30 32 34 36 38 39 40 -42 45 46 -47 -50 0
x 1 -2 -3 -12 -13 -14 -16 17 22 24 -25 -28 -31 -32 -33 -34 -35 -36 37 -38 -39 -41 46 47 48 -49 -50 0
x 3 -4 -6 -7 11 12 16 19 21 22 23 25 -26 -28 -31 -32 -33 34 35 -36 37 -40 -42 -45 -49 0
x 2 3 -5 -6 -8 -12 -13 -16 -17 19 -20 21 23 24 26 28 30 34 -35 -36 37 -40 -41 42 43 47 -49 -50 0
x 3 -9 -11 13 14 15 -16 17 18 -20 -22 23 -24 -26 27 29 -30 -36 -38 40 -41 42 43 -44 -46 47 0
x -1 -8 9 -10 11 -13 16 19 20 21 22 23 -24 25 26 28 -29 30 -31 -38 40 41 43 44 -46 -48 -49 50 0
x 1 -3 -6 -8 -10 -14 -16 17 18 22 -24 -25 -30 -31 -32 -34 -35 -42 43 -44 -45 47 49 50 0
x -2 3 -5 8 -14 -16 -19 -22 24 -25 27 -29 -30 32 -33 36 -41 -42 45 -46 -47 49 -50 0
x 4 -5 -6 -9 11 12 13 -14 15 16 -17 18 19 -20 -21 22 24 32 -36 38 40 41 43 45 -47 -48 0
x -2 -5 8 -9 11 -12 16 -18 19 20 23 -25 27 32 -33 -34 36 37 -38 39 40 41 -42 -43 -44 50 0
x 2 -3 -4 -8 9 -11 -12 13 16 19 -20 -21 -23 -30 -32 34 -37 43 -45 -46 47 48 -50 0
x 4 8 9 11 -20 22 -24 26 28 29 -32 -33 -34 37 39 40 -42 -43 -44 -45 -48 49 50 0
x 3 4 6 -7 9 13 14 15 -18 -21 -22 23 -24 -25 -28 -29 30 -31 32 -35 -38 40 -42 43 -45 -46 -49 50 0
x -1 3 -8 12 13 -15 17 18 20 21 -23 26 -27 -28 30 31 -32 33 -40 -41 -42 43 -44 45 -47 -48 49 0
